results/datas/Users_7.tsp
NAME: st70
TYPE: TSP
COMMENT: 70-city problem (Smith/Thompson)
DIMENSION: 70
EDGE_WEIGHT_TYPE : EUC_2D
NODE_COORD_SECTION
1 0.353 0.845 
2 0.741 0.453 
3 0.832 1.433 
4 0.486 1.800 
5 1.422 1.812 
6 1.684 1.367 
7 1.345 0.265 
8 1.923 0.422 
EOF
