results/datas/Users_7.txt
0.353 0.845 0
0.741 0.453 0
0.832 1.433 0 
0.486 1.800 0
1.422 1.812 0
1.684 1.367 0
1.345 0.265 0
1.923 0.422 0